Copyright (C) 2013-2015, Filipe Brandao
Build (method = -2)
  #dp: 152694
  Step-3' Graph: 577 vertices and 67164 arcs (0.61s)
  Step-4' Graph: 568 vertices and 67146 arcs (0.62s)
  #V4/#V3 = 0.98
  #A4/#A3 = 1.00
Ready! (0.62s)
Optimize a model with 952 rows, 67147 columns and 200310 nonzeros
Presolve removed 131 rows and 134 columns
Presolve time: 0.32s
Presolved: 821 rows, 67013 columns, 199632 nonzeros
Variable types: 0 continuous, 67013 integer (15330 binary)
Optimize a model with 821 rows, 67013 columns and 199632 nonzeros
Presolved: 821 rows, 67013 columns, 199632 nonzeros

Root barrier log...

Ordering time: 0.01s

Barrier statistics:
 AA' NZ     : 1.279e+05
 Factor NZ  : 2.311e+05 (roughly 30 MBytes of memory)
 Factor Ops : 8.898e+07 (less than 1 second per iteration)
 Threads    : 1

                  Objective                Residual
Iter       Primal          Dual         Primal    Dual     Compl     Time
   0   4.49932100e+05 -2.84580400e+06  9.45e+06 9.01e-02  7.72e+02     0s
   1   1.26975197e+05 -6.66303052e+05  1.22e+06 6.66e-16  1.03e+02     0s
   2   1.68000151e+04 -1.72819728e+05  1.01e+05 4.22e-15  9.39e+00     0s
   3   4.29456800e+03 -9.33186547e+04  1.09e+04 1.87e-03  1.52e+00     0s
   4   3.09233176e+03 -4.26096951e+04  2.99e+03 5.47e-04  5.12e-01     0s
   5   1.90772486e+03 -1.65132050e+04  1.01e+03 1.63e-04  1.84e-01     0s
   6   1.23424804e+03 -6.66856550e+03  3.21e+02 4.64e-05  7.15e-02     0s
   7   9.78892574e+02 -3.73655087e+03  1.28e+02 1.28e-05  3.94e-02     0s
   8   9.13637440e+02 -2.76061069e+03  1.02e+02 1.33e-15  3.05e-02     0s
   9   8.61787287e+02 -2.63600564e+03  8.41e+01 1.55e-15  2.86e-02     0s
  10   8.36382172e+02 -2.16357119e+03  7.75e+01 1.17e-15  2.45e-02     0s
  11   7.59854941e+02 -1.80791177e+03  5.89e+01 1.15e-15  2.07e-02     0s
  12   6.97494150e+02 -1.24319391e+03  4.47e+01 1.05e-15  1.56e-02     1s
  13   5.96161863e+02 -8.37176154e+02  2.54e+01 9.96e-16  1.13e-02     1s
  14   5.42867640e+02 -5.06586186e+02  1.87e+01 9.65e-16  8.22e-03     1s
  15   5.05504906e+02 -2.61564870e+02  1.41e+01 9.37e-16  5.99e-03     1s
  16   4.91652132e+02 -1.08133936e+02  1.25e+01 7.93e-16  4.69e-03     1s
  17   4.55968686e+02  8.78985918e+01  8.46e+00 8.48e-16  2.87e-03     1s
  18   4.41040450e+02  1.90124348e+02  6.62e+00 9.14e-16  1.96e-03     1s
  19   4.23919260e+02  2.30263609e+02  4.43e+00 9.12e-16  1.50e-03     1s
  20   4.14740287e+02  2.66321661e+02  3.09e+00 9.56e-16  1.14e-03     1s
  21   4.12321489e+02  2.83646676e+02  2.33e+00 1.08e-15  9.80e-04     1s
  22   4.10482714e+02  3.13578887e+02  1.68e+00 9.34e-16  7.35e-04     1s
  23   4.05507692e+02  3.51523478e+02  9.12e-01 8.52e-16  4.07e-04     1s
  24   4.01350140e+02  3.72481830e+02  2.06e-01 7.43e-16  2.16e-04     1s
  25   4.00068238e+02  3.83121302e+02  6.98e-02 7.90e-16  1.26e-04     1s
  26   3.99664761e+02  3.89180284e+02  4.50e-02 8.07e-16  7.82e-05     1s
  27   3.99465953e+02  3.91704508e+02  3.62e-02 8.61e-16  5.79e-05     1s
  28   3.99172398e+02  3.94677406e+02  2.36e-02 8.33e-16  3.35e-05     1s
  29   3.99116896e+02  3.94922453e+02  2.14e-02 1.06e-15  3.13e-05     1s
  30   3.98854698e+02  3.95594507e+02  1.13e-02 9.99e-16  2.43e-05     1s
  31   3.98768791e+02  3.96508107e+02  8.30e-03 8.58e-16  1.69e-05     1s
  32   3.98724192e+02  3.96735249e+02  6.94e-03 9.12e-16  1.48e-05     1s
  33   3.98655955e+02  3.97011374e+02  4.99e-03 9.81e-16  1.23e-05     1s
  34   3.98638769e+02  3.97426013e+02  4.56e-03 9.42e-16  9.04e-06     1s
  35   3.98590571e+02  3.97538481e+02  3.47e-03 1.01e-15  7.84e-06     1s
  36   3.98558866e+02  3.97773589e+02  2.80e-03 9.61e-16  5.85e-06     1s
  37   3.98536765e+02  3.97961402e+02  2.29e-03 1.04e-15  4.29e-06     1s
  38   3.98518596e+02  3.98016412e+02  1.95e-03 1.14e-15  3.74e-06     1s
  39   3.98508086e+02  3.98057197e+02  1.77e-03 1.15e-15  3.36e-06     1s
  40   3.98493311e+02  3.98096370e+02  1.53e-03 1.13e-15  2.96e-06     1s
  41   3.98483725e+02  3.98212951e+02  1.22e-03 1.06e-15  2.02e-06     1s
  42   3.98452955e+02  3.98294384e+02  6.65e-04 8.26e-16  1.18e-06     1s
  43   3.98449178e+02  3.98327085e+02  6.10e-04 9.06e-16  9.10e-07     2s
  44   3.98427978e+02  3.98373569e+02  3.41e-04 7.68e-16  4.06e-07     2s
  45   3.98416568e+02  3.98394125e+02  2.09e-04 6.88e-16  1.67e-07     2s
  46   3.98410965e+02  3.98397219e+02  1.42e-04 6.38e-16  1.03e-07     2s
  47   3.98408169e+02  3.98397833e+02  1.08e-04 7.23e-16  7.71e-08     2s
  48   3.98407492e+02  3.98399900e+02  9.84e-05 6.74e-16  5.67e-08     2s
  49   3.98404933e+02  3.98403591e+02  3.91e-06 6.71e-16  1.00e-08     2s
  50   3.98404003e+02  3.98403993e+02  2.44e-08 7.04e-16  7.18e-11     2s
  51   3.98404000e+02  3.98404000e+02  1.32e-09 7.24e-16  1.62e-16     2s

Barrier solved model in 51 iterations and 1.77 seconds
Optimal objective 3.98404000e+02


Root relaxation: objective 3.984040e+02, 45880 iterations, 2.48 seconds
Total elapsed time = 6.47s

    Nodes    |    Current Node    |     Objective Bounds      |     Work
 Expl Unexpl |  Obj  Depth IntInf | Incumbent    BestBd   Gap | It/Node Time

     0     0  398.40400    0  191          -  398.40400     -      -   11s
H    0     0                     401.0000000  398.40400  0.65%     -   12s
H    0     0                     399.0000000  398.40400  0.15%     -   15s

Explored 0 nodes (65629 simplex iterations) in 15.05 seconds
Thread count was 1 (of 4 available processors)

Optimal solution found (tolerance 0.00e+00)
Best objective 3.990000000000e+02, best bound 3.990000000000e+02, gap 0.0%
Preprocessing time: 0.75 seconds
Gurobi run time: 15.05 seconds
Total run time: 15.80 seconds
Objective: 399
Solution:
3 x [i=1, i=254]
2 x [i=2, i=253]
2 x [i=3, i=252]
1 x [i=3, i=339, i=360]
2 x [i=4, i=251]
2 x [i=4, i=322, i=380]
2 x [i=5, i=250]
4 x [i=6, i=248]
1 x [i=7, i=247]
2 x [i=7, i=318, i=379]
1 x [i=7, i=319, i=378]
3 x [i=8, i=246]
1 x [i=9, i=320, i=375]
1 x [i=9, i=324, i=372]
1 x [i=9, i=339, i=353]
1 x [i=10, i=245]
3 x [i=11, i=244]
1 x [i=12, i=243]
2 x [i=13, i=241]
1 x [i=13, i=329, i=362]
1 x [i=13, i=344, i=344]
2 x [i=14, i=240]
2 x [i=15, i=238]
2 x [i=16, i=237]
1 x [i=16, i=324, i=365]
1 x [i=16, i=337, i=348]
1 x [i=17, i=236]
2 x [i=18, i=235]
2 x [i=19, i=234]
1 x [i=20, i=233]
2 x [i=21, i=232]
1 x [i=22, i=323, i=360]
2 x [i=23, i=230]
2 x [i=24, i=229]
1 x [i=24, i=327, i=353]
2 x [i=25, i=228]
1 x [i=25, i=335, i=343]
1 x [i=25, i=360]
1 x [i=26, i=227]
3 x [i=27, i=226]
1 x [i=28, i=315, i=361]
4 x [i=29, i=309, i=365]
1 x [i=29, i=314, i=360]
2 x [i=30, i=225]
2 x [i=30, i=314, i=359]
1 x [i=31, i=224]
1 x [i=32, i=222]
2 x [i=33, i=221]
1 x [i=34, i=220]
1 x [i=34, i=311, i=357]
1 x [i=34, i=325, i=345]
2 x [i=35, i=218]
5 x [i=36, i=217]
1 x [i=36, i=293, i=372]
3 x [i=37, i=216]
3 x [i=38, i=214]
1 x [i=38, i=321, i=343]
3 x [i=39, i=213]
1 x [i=39, i=298, i=364]
1 x [i=39, i=303, i=359]
1 x [i=39, i=330, i=335]
3 x [i=40, i=212]
1 x [i=40, i=299, i=362]
1 x [i=41, i=288, i=373]
1 x [i=41, i=302, i=358]
1 x [i=42, i=211]
1 x [i=43, i=209]
1 x [i=44, i=208]
1 x [i=45, i=207]
1 x [i=45, i=312, i=344]
1 x [i=46, i=206]
1 x [i=47, i=205]
1 x [i=47, i=283, i=372]
1 x [i=47, i=292, i=362]
2 x [i=48, i=204]
1 x [i=48, i=289, i=365]
1 x [i=49, i=273]
1 x [i=49, i=275, i=377]
1 x [i=49, i=300, i=352]
1 x [i=49, i=305, i=348]
1 x [i=49, i=313, i=339]
2 x [i=50, i=203]
2 x [i=51, i=202]
2 x [i=52, i=201]
2 x [i=52, i=270, i=380]
1 x [i=53, i=200]
1 x [i=53, i=319, i=334]
1 x [i=54, i=290, i=358]
1 x [i=54, i=321, i=331]
1 x [i=54, i=326, i=326]
1 x [i=55, i=199]
1 x [i=55, i=284, i=365]
1 x [i=55, i=286, i=362]
1 x [i=56, i=198]
3 x [i=57, i=197]
2 x [i=58, i=196]
1 x [i=58, i=288, i=357]
1 x [i=58, i=290, i=354]
1 x [i=59, i=276, i=367]
2 x [i=60, i=193]
1 x [i=60, i=264, i=376]
1 x [i=60, i=286, i=355]
2 x [i=61, i=259, i=382]
2 x [i=61, i=270, i=370]
1 x [i=61, i=317, i=327]
1 x [i=62, i=263, i=375]
1 x [i=62, i=320, i=324]
2 x [i=63, i=258, i=381]
1 x [i=63, i=295, i=343]
2 x [i=64, i=192]
5 x [i=65, i=190]
1 x [i=66, i=189]
1 x [i=66, i=286, i=350]
2 x [i=67, i=188]
1 x [i=68, i=187]
1 x [i=68, i=291, i=341]
1 x [i=68, i=328, i=378]
1 x [i=69, i=186]
2 x [i=70, i=185]
1 x [i=71, i=184]
1 x [i=72, i=288, i=342]
1 x [i=72, i=294, i=336]
1 x [i=72, i=296, i=335]
3 x [i=73, i=183]
1 x [i=74, i=296, i=333]
1 x [i=75, i=181]
3 x [i=76, i=180]
1 x [i=77, i=286, i=338]
2 x [i=78, i=178]
1 x [i=79, i=177]
3 x [i=80, i=176]
3 x [i=81, i=175]
3 x [i=82, i=174]
1 x [i=82, i=263, i=356]
1 x [i=82, i=271, i=349]
1 x [i=82, i=301, i=322]
2 x [i=82, i=310, i=312]
2 x [i=83, i=173]
2 x [i=84, i=276, i=342]
1 x [i=84, i=289, i=332]
2 x [i=85, i=172]
4 x [i=86, i=171]
1 x [i=86, i=296, i=323]
1 x [i=86, i=303, i=316]
2 x [i=87, i=170]
1 x [i=88, i=169]
1 x [i=88, i=269, i=346]
1 x [i=89, i=168]
1 x [i=90, i=167]
3 x [i=91, i=166]
1 x [i=92, i=231, i=380]
2 x [i=92, i=255, i=356]
1 x [i=93, i=263, i=347]
1 x [i=93, i=290, i=324]
1 x [i=93, i=302, i=310]
1 x [i=94, i=261, i=349]
1 x [i=94, i=269, i=340]
1 x [i=95, i=165]
2 x [i=96, i=164]
1 x [i=96, i=268, i=339]
3 x [i=96, i=282, i=329]
1 x [i=97, i=163]
2 x [i=98, i=162]
1 x [i=99, i=298, i=307]
1 x [i=99, i=299, i=306]
3 x [i=100, i=160]
1 x [i=100, i=244, i=360]
1 x [i=100, i=254, i=350]
1 x [i=101, i=159]
2 x [i=102, i=158]
1 x [i=103, i=157]
1 x [i=103, i=257, i=344]
2 x [i=104, i=156]
3 x [i=105, i=155]
1 x [i=105, i=216, i=384]
1 x [i=105, i=258, i=341]
1 x [i=105, i=290, i=311]
1 x [i=106, i=154]
2 x [i=107, i=153]
1 x [i=108, i=152]
2 x [i=109, i=151]
2 x [i=110, i=226, i=368]
1 x [i=111, i=150]
2 x [i=112, i=149]
1 x [i=113, i=231, i=360]
1 x [i=113, i=285, i=308]
4 x [i=114, i=147]
2 x [i=115, i=146]
1 x [i=116, i=145]
2 x [i=116, i=236, i=352]
1 x [i=116, i=253, i=336]
2 x [i=116, i=284, i=307]
1 x [i=117, i=143]
1 x [i=118, i=236, i=350]
2 x [i=118, i=279, i=309]
3 x [i=119, i=139]
2 x [i=120, i=138]
1 x [i=121, i=137]
2 x [i=122, i=136]
1 x [i=123, i=242, i=337]
1 x [i=123, i=277, i=304]
1 x [i=124, i=210, i=369]
1 x [i=124, i=235, i=342]
1 x [i=125, i=134]
1 x [i=126, i=133]
1 x [i=127, i=131]
1 x [i=127, i=303, i=360]
1 x [i=128, i=130]
1 x [i=129, i=192, i=384]
1 x [i=130, i=132]
1 x [i=130, i=133]
1 x [i=130, i=222, i=351]
1 x [i=130, i=243, i=331]
1 x [i=130, i=287, i=287]
1 x [i=133, i=259, i=312]
1 x [i=134, i=209, i=359]
1 x [i=134, i=216, i=352]
1 x [i=135, i=202, i=363]
1 x [i=135, i=261, i=305]
1 x [i=136, i=215, i=349]
1 x [i=136, i=232, i=333]
1 x [i=136, i=242, i=325]
1 x [i=136, i=258, i=307]
1 x [i=139, i=264, i=297]
1 x [i=140, i=281, i=282]
1 x [i=141, i=236, i=328]
1 x [i=141, i=243, i=319]
1 x [i=141, i=272, i=363, i=376]
1 x [i=142, i=219, i=344]
1 x [i=144, i=192, i=368]
1 x [i=144, i=194, i=363]
2 x [i=144, i=261, i=296]
1 x [i=144, i=261, i=303]
2 x [i=144, i=273, i=285]
2 x [i=148, i=184, i=370]
1 x [i=149, i=221, i=334]
2 x [i=150, i=181, i=373]
1 x [i=150, i=250, i=301]
1 x [i=151, i=182, i=370]
1 x [i=153, i=177, i=373]
1 x [i=153, i=186, i=364]
1 x [i=153, i=298, i=347, i=351]
1 x [i=154, i=191, i=358]
2 x [i=154, i=236, i=311]
1 x [i=154, i=243, i=305]
2 x [i=156, i=182, i=366]
1 x [i=156, i=250, i=295]
1 x [i=158, i=194, i=349]
1 x [i=158, i=223, i=324]
1 x [i=158, i=266, i=278]
1 x [i=161, i=161, i=383]
2 x [i=165, i=173, i=366]
1 x [i=165, i=243, i=294]
1 x [i=167, i=180, i=354]
1 x [i=170, i=262, i=267]
1 x [i=172, i=260, i=268]
1 x [i=176, i=211, i=314]
1 x [i=177, i=179, i=346]
1 x [i=177, i=249, i=274]
1 x [i=178, i=243, i=280]
1 x [i=182, i=234, i=284]
1 x [i=184, i=258, i=258]
1 x [i=185, i=239, i=275]
1 x [i=185, i=249, i=265]
1 x [i=185, i=313, i=353, i=371, i=374]
1 x [i=191, i=191, i=323]
1 x [i=192, i=210, i=298]
1 x [i=192, i=242, i=266]
1 x [i=194, i=221, i=284]
1 x [i=194, i=227, i=275]
1 x [i=194, i=231, i=271]
1 x [i=195, i=224, i=280]
1 x [i=195, i=227, i=274]
1 x [i=202, i=210, i=286]
1 x [i=203, i=224, i=271]
2 x [i=206, i=219, i=272]
2 x [i=219, i=224, i=256]
1 x [i=222, i=233, i=242]
